1 -1 2 0
1 1 3 0
1 4 5 0
1 4 -2 0
1 4 -6 0
1 -7 -8 0
1 -7 9 0
1 7 10 0
1 7 5 0
1 7 -2 0
1 7 -11 0
1 7 -12 0
1 -7 -13 0
1 -7 -6 0
1 -7 3 0
1 10 9 0
1 -10 -14 0
1 -10 5 0
1 10 11 0
1 10 -7 0
1 -10 6 0
1 2 10 0
1 -2 15 0
1 -2 -16 0
1 -2 17 0
1 -2 -1 0
1 -2 -3 0
1 -3 18 0
1 -3 19 0
1 3 -20 0
1 -3 21 0
1 3 -10 0
1 -3 4 0
1 3 -15 0
1 3 17 0
1 -3 7 0
1 -3 1 0
1 5 19 0
1 -5 22 0
1 -5 10 0
1 5 23 0
1 -5 15 0
1 -5 7 0
1 5 1 0
1 5 6 0
1 6 -19 0
1 -6 24 0
1 6 -22 0
1 6 10 0
1 6 -4 0
1 -6 5 0
1 6 15 0
1 -6 25 0
1 6 -26 0
1 6 1 0
1 6 -27 0
1 -17 -11 0
1 -17 12 0
1 -17 26 0
1 17 -3 0
1 21 8 0
1 -21 -9 0
1 21 -22 0
1 21 -2 0
1 21 -12 0
1 -21 17 0
1 -21 3 0
1 16 8 0
1 -16 -9 0
1 -16 20 0
1 16 -28 0
1 16 -29 0
1 16 2 0
1 -16 11 0
1 -16 -30 0
1 16 -25 0
1 -16 31 0
1 -16 3 0
1 -20 -28 0
1 -20 -29 0
1 20 11 0
1 20 -12 0
1 20 30 0
1 20 3 0
1 -12 -32 0
1 -12 9 0
1 12 20 0
1 -12 21 0
1 12 -10 0
1 -12 -33 0
1 -12 -34 0
1 12 35 0
1 12 -16 0
1 12 -17 0
1 12 -36 0
1 9 -37 0
1 -9 32 0
1 9 -38 0
1 9 -21 0
1 9 -10 0
1 9 -33 0
1 -9 -34 0
1 -9 17 0
1 9 7 0
1 11 -39 0
1 11 -20 0
1 -11 -21 0
1 11 10 0
1 11 -40 0
1 11 -41 0
1 -11 15 0
1 11 -16 0
1 11 17 0
1 11 -7 0
1 -11 -36 0
1 8 39 0
1 8 -19 0
1 8 -21 0
1 -8 10 0
1 8 40 0
1 8 11 0
1 8 -15 0
1 8 17 0
1 -8 7 0
1 -8 36 0
1 -34 -32 0
1 -34 9 0
1 34 28 0
1 34 -29 0
1 34 12 0
1 -34 -15 0
1 34 30 0
1 -34 31 0
1 -32 19 0
1 -32 29 0
1 -32 34 0
1 -32 30 0
1 33 -37 0
1 -33 9 0
1 -33 28 0
1 33 29 0
1 33 30 0
1 33 31 0
1 37 -9 0
1 -37 -28 0
1 37 -29 0
1 -37 -12 0
1 -37 -30 0
1 -37 -31 0
1 31 -32 0
1 -31 42 0
1 31 43 0
1 -31 -44 0
1 -29 -45 0
1 29 -42 0
1 -29 33 0
1 29 -16 0
1 -29 31 0
1 -29 -44 0
1 -30 37 0
1 30 -32 0
1 -30 -20 0
1 -30 42 0
1 30 -46 0
1 -30 -40 0
1 30 -33 0
1 30 44 0
1 30 -36 0
1 -28 37 0
1 -28 -32 0
1 28 -20 0
1 -28 47 0
1 -28 42 0
1 28 -40 0
1 -28 33 0
1 28 34 0
1 28 -16 0
1 28 -30 0
1 -28 -48 0
1 28 -36 0
1 -49 50 0
1 49 -51 0
1 49 52 0
1 49 53 0
1 54 55 0
1 -54 -4 0
1 54 51 0
1 -54 -52 0
1 54 -49 0
1 13 50 0
1 -13 56 0
1 -13 -57 0
1 13 14 0
1 13 51 0
1 -13 52 0
1 -13 58 0
1 -13 -59 0
1 13 -7 0
1 -13 60 0
1 14 55 0
1 14 50 0
1 14 -56 0
1 14 57 0
1 -14 10 0
1 -14 61 0
1 -14 -51 0
1 -14 -52 0
1 14 -58 0
1 -50 -24 0
1 -50 62 0
1 50 -22 0
1 50 -14 0
1 -50 54 0
1 -50 -52 0
1 50 63 0
1 -50 -25 0
1 50 -26 0
1 -50 -13 0
1 -50 -49 0
1 -52 64 0
1 52 -22 0
1 -52 54 0
1 52 63 0
1 52 -25 0
1 -52 -13 0
1 -52 49 0
1 55 -65 0
1 55 64 0
1 -55 66 0
1 55 -67 0
1 -55 -14 0
1 -55 54 0
1 55 51 0
1 -55 63 0
1 -55 -68 0
1 -55 69 0
1 55 13 0
1 51 55 0
1 -51 -64 0
1 51 66 0
1 -51 -14 0
1 -51 54 0
1 -51 70 0
1 -51 63 0
1 51 -68 0
1 -51 69 0
1 -51 -13 0
1 26 -50 0
1 -26 -22 0
1 26 -57 0
1 -26 -52 0
1 26 58 0
1 -26 59 0
1 -26 17 0
1 22 -56 0
1 22 21 0
1 -22 57 0
1 22 -52 0
1 -22 59 0
1 -25 -50 0
1 25 24 0
1 25 -56 0
1 25 -57 0
1 25 -71 0
1 25 -72 0
1 25 5 0
1 -25 52 0
1 25 -58 0
1 -25 16 0
1 25 -59 0
1 25 -73 0
1 -25 74 0
1 -24 -59 0
1 -24 -50 0
1 24 -56 0
1 -24 -66 0
1 24 -57 0
1 24 71 0
1 -24 52 0
1 24 58 0
1 24 25 0
1 -24 6 0
1 -57 -75 0
1 -57 -59 0
1 -57 39 0
1 57 -19 0
1 57 -24 0
1 57 14 0
1 57 -76 0
1 57 -25 0
1 -57 -26 0
1 57 13 0
1 59 -75 0
1 -59 -39 0
1 59 -19 0
1 -59 -24 0
1 -59 22 0
1 -59 57 0
1 59 -14 0
1 59 -76 0
1 -59 -41 0
1 59 15 0
1 -59 -25 0
1 59 -26 0
1 -59 13 0
1 56 -75 0
1 56 77 0
1 56 -78 0
1 56 -14 0
1 -56 76 0
1 56 79 0
1 56 -63 0
1 56 -25 0
1 56 -26 0
1 -56 13 0
1 -58 -75 0
1 -58 64 0
1 58 -56 0
1 58 14 0
1 -58 -76 0
1 -58 79 0
1 58 63 0
1 58 -26 0
1 15 -19 0
1 15 57 0
1 -15 -71 0
1 15 72 0
1 -15 2 0
1 -15 11 0
1 -15 34 0
1 15 59 0
1 15 -73 0
1 -15 74 0
1 15 6 0
1 -19 -64 0
1 19 71 0
1 19 -72 0
1 19 5 0
1 -19 -2 0
1 19 -59 0
1 -19 73 0
1 -19 -6 0
1 19 -3 0
1 -41 18 0
1 -41 39 0
1 -41 72 0
1 -41 -80 0
1 -41 11 0
1 -41 -33 0
1 -41 79 0
1 41 59 0
1 -41 -74 0
1 -39 -18 0
1 39 -37 0
1 -39 -8 0
1 -39 57 0
1 39 -23 0
1 39 80 0
1 -39 -11 0
1 39 -73 0
1 39 -74 0
1 -39 -27 0
1 -72 -39 0
1 -72 -19 0
1 72 24 0
1 72 81 0
1 -72 -46 0
1 72 -82 0
1 -72 -40 0
1 -72 41 0
1 -72 15 0
1 72 74 0
1 -72 -83 0
1 -74 -72 0
1 -74 46 0
1 74 40 0
1 -74 41 0
1 74 15 0
1 74 -83 0
1 -74 36 0
1 -71 -75 0
1 -71 -39 0
1 -71 -19 0
1 71 -24 0
1 71 84 0
1 -71 76 0
1 -71 41 0
1 71 -15 0
1 71 25 0
1 71 -73 0
1 -71 83 0
1 -71 85 0
1 73 -75 0
1 -73 19 0
1 -73 24 0
1 73 -71 0
1 -73 -81 0
1 73 -76 0
1 -73 -41 0
1 -73 25 0
1 -73 86 0
1 -73 -85 0
1 -40 18 0
1 -40 -8 0
1 40 28 0
1 40 -72 0
1 -40 23 0
1 -40 76 0
1 40 11 0
1 40 80 0
1 40 74 0
1 -40 -27 0
1 -40 36 0
1 36 -75 0
1 -36 8 0
1 36 18 0
1 -36 -9 0
1 -36 -72 0
1 36 -23 0
1 36 -40 0
1 -36 80 0
1 -36 -11 0
1 36 -12 0
1 36 30 0
1 -36 -27 0
1 46 18 0
1 46 -38 0
1 46 -28 0
1 -46 87 0
1 46 -23 0
1 -46 -80 0
1 -46 -88 0
1 -46 35 0
1 46 -74 0
1 46 -48 0
1 48 18 0
1 -48 -89 0
1 48 38 0
1 48 -72 0
1 48 -46 0
1 48 -23 0
1 -48 88 0
1 48 -74 0
1 -80 -39 0
1 80 90 0
1 80 -91 0
1 80 -42 0
1 80 -40 0
1 -80 92 0
1 80 41 0
1 80 48 0
1 -80 -36 0
1 18 -93 0
1 -18 -39 0
1 -18 -90 0
1 18 91 0
1 18 46 0
1 -18 -40 0
1 -18 -41 0
1 18 -3 0
1 18 -94 0
1 18 44 0
1 18 48 0
1 -23 -39 0
1 -23 -90 0
1 23 95 0
1 23 -5 0
1 23 -40 0
1 23 -96 0
1 -23 -97 0
1 -23 -83 0
1 -23 -48 0
1 23 27 0
1 -23 36 0
1 27 -39 0
1 -27 -90 0
1 27 95 0
1 -27 -81 0
1 -27 46 0
1 27 -40 0
1 -27 -6 0
1 -27 -96 0
1 -27 -83 0
1 27 98 0
1 -42 -28 0
1 -42 -38 0
1 -42 -29 0
1 -42 -88 0
1 -42 35 0
1 -42 -30 0
1 -42 -44 0
1 -44 -18 0
1 44 29 0
1 -44 -42 0
1 -44 88 0
1 44 35 0
1 44 -31 0
1 -91 18 0
1 91 -38 0
1 91 -47 0
1 91 -45 0
1 91 -95 0
1 91 -88 0
1 91 35 0
1 -91 99 0
1 91 43 0
1 94 -18 0
1 94 -89 0
1 94 -38 0
1 94 47 0
1 94 88 0
1 94 -35 0
1 -94 -97 0
1 35 38 0
1 -35 100 0
1 -35 101 0
1 -35 -91 0
1 -35 42 0
1 35 46 0
1 -35 102 0
1 -35 12 0
1 35 103 0
1 35 44 0
1 35 48 0
1 -38 -9 0
1 -38 -104 0
1 -38 100 0
1 -38 -101 0
1 -38 -91 0
1 38 -42 0
1 -38 -46 0
1 38 -105 0
1 -38 -35 0
1 -38 -106 0
1 38 94 0
1 -38 -44 0
1 38 -48 0
1 -88 89 0
1 -88 -90 0
1 -88 -91 0
1 -88 -46 0
1 88 11 0
1 88 -102 0
1 -88 107 0
1 -88 108 0
1 88 96 0
1 88 -94 0
1 88 -48 0
1 89 -8 0
1 -89 -104 0
1 89 109 0
1 89 -90 0
1 89 91 0
1 89 -46 0
1 -89 102 0
1 89 88 0
1 -89 96 0
1 -89 -44 0
1 101 38 0
1 -101 47 0
1 101 45 0
1 101 90 0
1 -101 99 0
1 -101 -35 0
1 101 106 0
1 106 38 0
1 106 -47 0
1 106 101 0
1 -106 -45 0
1 -106 -35 0
1 106 99 0
1 -106 96 0
1 106 43 0
1 100 38 0
1 -100 47 0
1 100 -105 0
1 -100 -35 0
1 100 99 0
1 100 -43 0
1 -105 -38 0
1 -105 100 0
1 105 -47 0
1 105 -45 0
1 -105 35 0
1 105 -108 0
1 105 -99 0
1 -105 -43 0
1 43 -110 0
1 -43 91 0
1 -43 -105 0
1 -43 -31 0
1 -43 94 0
1 -45 110 0
1 -45 100 0
1 -45 29 0
1 -45 101 0
1 45 -111 0
1 45 91 0
1 45 112 0
1 45 105 0
1 99 -110 0
1 -99 -104 0
1 -99 -100 0
1 99 47 0
1 -99 -91 0
1 -99 -113 0
1 99 102 0
1 -99 -30 0
1 -99 -106 0
1 -99 -114 0
1 -47 110 0
1 -47 -115 0
1 -47 104 0
1 47 28 0
1 47 -100 0
1 -47 101 0
1 -47 91 0
1 47 -113 0
1 47 -99 0
1 -47 105 0
1 47 -106 0
1 47 94 0
1 53 -116 0
1 53 117 0
1 53 118 0
1 53 -119 0
1 -53 -49 0
1 120 -116 0
1 120 -117 0
1 120 118 0
1 -120 -119 0
1 -120 -53 0
1 -60 -116 0
1 60 -117 0
1 -60 121 0
1 -60 -61 0
1 60 -122 0
1 -60 -118 0
1 -60 119 0
1 -60 -123 0
1 60 -13 0
1 61 116 0
1 -61 -121 0
1 -61 -14 0
1 -61 -122 0
1 -61 119 0
1 61 123 0
1 119 -66 0
1 -119 117 0
1 -119 61 0
1 -119 68 0
1 -119 124 0
1 -119 -69 0
1 -117 66 0
1 -117 125 0
1 117 -67 0
1 117 -61 0
1 117 -68 0
1 117 -69 0
1 117 60 0
1 117 -53 0
1 -118 126 0
1 -118 116 0
1 -118 -61 0
1 118 -120 0
1 -118 -60 0
1 118 -53 0
1 116 60 0
1 69 117 0
1 -69 -67 0
1 -69 -121 0
1 69 -122 0
1 -69 -51 0
1 -69 119 0
1 69 26 0
1 -69 123 0
1 -69 127 0
1 67 55 0
1 -67 -22 0
1 -67 122 0
1 67 123 0
1 67 51 0
1 67 -119 0
1 67 -69 0
1 -67 -127 0
1 -68 128 0
1 68 55 0
1 -68 66 0
1 -68 117 0
1 -68 -129 0
1 -68 130 0
1 -68 51 0
1 68 25 0
1 -66 55 0
1 -66 -119 0
1 -66 -24 0
1 66 -117 0
1 -66 -121 0
1 66 122 0
1 -66 -129 0
1 -66 51 0
1 -66 -68 0
1 66 -131 0
1 127 77 0
1 -127 -64 0
1 127 61 0
1 -127 -132 0
1 -127 79 0
1 127 -63 0
1 127 68 0
1 127 69 0
1 -127 -60 0
1 -127 133 0
1 -122 77 0
1 122 -64 0
1 122 66 0
1 122 -67 0
1 122 -61 0
1 122 -134 0
1 122 132 0
1 122 79 0
1 122 -63 0
1 122 127 0
1 -122 68 0
1 122 69 0
1 122 60 0
1 123 -135 0
1 123 66 0
1 123 -121 0
1 123 132 0
1 -123 -68 0
1 123 69 0
1 -123 136 0
1 -123 60 0
1 121 -135 0
1 -121 -67 0
1 -121 -137 0
1 -121 61 0
1 121 -123 0
1 121 -68 0
1 -121 69 0
1 -63 -128 0
1 63 55 0
1 -63 50 0
1 -63 64 0
1 -63 56 0
1 -63 -122 0
1 63 -129 0
1 -63 130 0
1 -63 51 0
1 -63 -52 0
1 63 -58 0
1 63 -15 0
1 64 128 0
1 64 19 0
1 -64 -122 0
1 -64 129 0
1 -64 130 0
1 -64 -52 0
1 -64 58 0
1 64 -63 0
1 64 127 0
1 -64 131 0
1 79 -128 0
1 79 -65 0
1 79 62 0
1 -79 -56 0
1 -79 -122 0
1 79 -129 0
1 -79 -130 0
1 -79 -70 0
1 -79 127 0
1 -77 -128 0
1 -77 -39 0
1 77 -65 0
1 -77 -122 0
1 77 70 0
1 -77 79 0
1 -77 -138 0
1 77 131 0
1 -128 75 0
1 128 139 0
1 -128 -64 0
1 128 -66 0
1 -128 -140 0
1 128 -87 0
1 128 130 0
1 128 63 0
1 -130 75 0
1 130 -77 0
1 -130 64 0
1 -130 -66 0
1 130 76 0
1 130 -79 0
1 130 -63 0
1 -130 -141 0
1 -130 85 0
1 -131 77 0
1 131 -64 0
1 -131 -66 0
1 131 -140 0
1 131 142 0
1 131 -132 0
1 -131 -79 0
1 131 -68 0
1 -131 -141 0
1 -131 143 0
1 -129 135 0
1 -129 -77 0
1 -129 64 0
1 129 66 0
1 -129 140 0
1 -129 144 0
1 -129 132 0
1 129 63 0
1 -129 -68 0
1 -129 -141 0
1 -129 -131 0
1 76 75 0
1 76 -128 0
1 76 -65 0
1 -76 56 0
1 -76 130 0
1 76 40 0
1 -76 132 0
1 76 -70 0
1 76 -138 0
1 76 58 0
1 -76 73 0
1 -75 128 0
1 -75 -135 0
1 -75 56 0
1 75 -57 0
1 -75 -71 0
1 -75 -76 0
1 75 -70 0
1 75 138 0
1 75 -58 0
1 75 -59 0
1 -75 -73 0
1 -75 36 0
1 -87 65 0
1 87 78 0
1 -87 71 0
1 -87 -130 0
1 87 142 0
1 87 -70 0
1 87 -145 0
1 87 -73 0
1 87 85 0
1 -85 128 0
1 85 -65 0
1 85 -87 0
1 -85 -130 0
1 -85 70 0
1 85 138 0
1 85 -146 0
1 -85 -73 0
1 -62 -75 0
1 62 77 0
1 -62 -50 0
1 -62 147 0
1 62 -148 0
1 -62 87 0
1 -62 -138 0
1 -62 -97 0
1 138 -75 0
1 138 -77 0
1 -138 -148 0
1 -138 -95 0
1 -138 -76 0
1 -138 -52 0
1 138 79 0
1 138 149 0
1 -138 150 0
1 -138 -83 0
1 138 -85 0
1 -65 -75 0
1 65 148 0
1 65 151 0
1 65 -140 0
1 -65 87 0
1 65 -76 0
1 -65 -79 0
1 -65 150 0
1 -65 -152 0
1 65 -141 0
1 -65 85 0
1 -70 -75 0
1 70 -77 0
1 -70 65 0
1 -70 -151 0
1 -70 140 0
1 -70 76 0
1 70 152 0
1 70 -141 0
1 -70 -85 0
1 -81 -78 0
1 -81 153 0
1 81 -71 0
1 -81 -42 0
1 81 -72 0
1 -81 140 0
1 -81 -23 0
1 81 -145 0
1 -81 146 0
1 81 -73 0
1 81 -83 0
1 81 27 0
1 -83 -78 0
1 -83 -153 0
1 83 -72 0
1 -83 -23 0
1 83 138 0
1 83 -146 0
1 83 -73 0
1 -83 -44 0
1 -83 141 0
1 95 62 0
1 95 -86 0
1 95 -78 0
1 -95 -91 0
1 95 84 0
1 -95 151 0
1 -95 82 0
1 95 23 0
1 95 -138 0
1 95 -146 0
1 95 -97 0
1 -95 -154 0
1 97 -78 0
1 -97 84 0
1 97 82 0
1 -97 138 0
1 -97 -145 0
1 97 -94 0
1 97 -152 0
1 -97 154 0
1 97 27 0
1 -153 146 0
1 153 155 0
1 -153 57 0
1 153 -90 0
1 -153 -156 0
1 153 -95 0
1 -153 -81 0
1 -153 87 0
1 -153 157 0
1 153 -108 0
1 153 -96 0
1 153 83 0
1 -153 85 0
1 -146 90 0
1 146 -153 0
1 146 -95 0
1 146 157 0
1 146 108 0
1 -146 59 0
1 -146 96 0
1 -146 -158 0
1 -146 83 0
1 -146 85 0
1 78 155 0
1 78 56 0
1 -78 159 0
1 -78 160 0
1 -78 -148 0
1 -78 95 0
1 78 -81 0
1 78 87 0
1 -78 -145 0
1 -78 -161 0
1 -78 150 0
1 78 -97 0
1 -78 -83 0
1 -145 -155 0
1 -145 -78 0
1 145 159 0
1 -145 95 0
1 145 81 0
1 145 87 0
1 145 161 0
1 145 150 0
1 -145 97 0
1 -145 -85 0
1 -90 18 0
1 90 89 0
1 -90 -146 0
1 -90 101 0
1 90 -153 0
1 -90 148 0
1 90 -84 0
1 -90 -23 0
1 90 -80 0
1 -90 88 0
1 -90 96 0
1 90 86 0
1 -90 -154 0
1 90 -27 0
1 96 89 0
1 -96 -90 0
1 96 82 0
1 -96 -80 0
1 -96 88 0
1 -96 106 0
1 -96 146 0
1 96 150 0
1 -96 86 0
1 -96 -154 0
1 -96 27 0
1 109 -93 0
1 109 89 0
1 109 159 0
1 -109 -153 0
1 -109 -84 0
1 109 -82 0
1 109 92 0
1 109 88 0
1 -109 -108 0
1 -109 -146 0
1 -109 -154 0
1 109 -98 0
1 -108 153 0
1 -108 84 0
1 -108 162 0
1 -108 -92 0
1 -108 -161 0
1 -108 146 0
1 108 -98 0
1 82 163 0
1 -82 104 0
1 82 -109 0
1 -82 -90 0
1 -82 -95 0
1 -82 72 0
1 82 -164 0
1 82 165 0
1 -82 -113 0
1 82 102 0
1 -82 96 0
1 -82 -97 0
1 154 115 0
1 -154 -104 0
1 154 109 0
1 -154 90 0
1 154 95 0
1 -154 -82 0
1 154 113 0
1 154 -108 0
1 154 -96 0
1 -154 74 0
1 154 166 0
1 84 -163 0
1 -84 -167 0
1 84 155 0
1 84 109 0
1 -84 -90 0
1 -84 71 0
1 -84 -168 0
1 84 157 0
1 84 -97 0
1 86 -163 0
1 -86 -90 0
1 -86 95 0
1 86 84 0
1 86 -165 0
1 -86 157 0
1 -86 108 0
1 -86 73 0
1 86 -97 0
1 86 169 0
1 104 -38 0
1 104 155 0
1 104 -82 0
1 -104 -102 0
1 104 88 0
1 104 99 0
1 -104 154 0
1 -102 -93 0
1 -102 -89 0
1 102 -104 0
1 -102 -38 0
1 102 -47 0
1 -102 -82 0
1 -102 162 0
1 -102 92 0
1 -102 -88 0
1 102 -157 0
1 -102 98 0
1 115 93 0
1 115 167 0
1 -115 -170 0
1 -115 171 0
1 -115 -82 0
1 -115 -162 0
1 115 107 0
1 -115 98 0
1 -113 93 0
1 113 170 0
1 -113 -171 0
1 -113 47 0
1 113 82 0
1 -113 162 0
1 113 -168 0
1 113 -92 0
1 -113 -107 0
1 -113 -103 0
1 -113 98 0
1 -92 -110 0
1 92 93 0
1 92 109 0
1 92 -172 0
1 92 -173 0
1 -92 -112 0
1 92 113 0
1 92 -174 0
1 92 175 0
1 93 110 0
1 -93 -18 0
1 93 115 0
1 93 104 0
1 93 172 0
1 93 -113 0
1 93 -102 0
1 93 -108 0
1 -93 174 0
1 -93 175 0
1 -162 163 0
1 -162 -115 0
1 162 -104 0
1 162 -176 0
1 162 -23 0
1 162 -113 0
1 162 -102 0
1 -162 -108 0
1 -162 174 0
1 162 98 0
1 162 177 0
1 -98 163 0
1 98 115 0
1 -98 -104 0
1 -98 -109 0
1 -98 176 0
1 -98 165 0
1 98 -113 0
1 -98 102 0
1 -98 27 0
1 -98 -177 0
1 110 -171 0
1 110 47 0
1 -110 45 0
1 -110 112 0
1 110 107 0
1 -110 -103 0
1 -110 -99 0
1 112 93 0
1 112 170 0
1 -112 -171 0
1 112 -47 0
1 -112 -45 0
1 112 -165 0
1 -112 -92 0
1 -112 -107 0
1 -112 103 0
1 112 -99 0
1 -112 -43 0
1 175 170 0
1 -175 171 0
1 175 -178 0
1 175 -111 0
1 -175 173 0
1 -175 -92 0
1 -175 107 0
1 175 -103 0
1 175 -114 0
1 175 177 0
1 173 93 0
1 173 170 0
1 173 178 0
1 -173 111 0
1 173 176 0
1 -173 114 0
1 173 -179 0
1 173 175 0
1 -103 -115 0
1 -103 -171 0
1 -103 -180 0
1 103 -181 0
1 -103 -173 0
1 103 113 0
1 -103 -35 0
1 103 -182 0
1 103 -175 0
1 171 -115 0
1 -171 38 0
1 171 -180 0
1 171 -112 0
1 -171 -113 0
1 171 103 0
1 -171 -175 0
1 -107 -110 0
1 -107 170 0
1 107 183 0
1 107 172 0
1 107 -173 0
1 107 112 0
1 -107 113 0
1 -107 -184 0
1 -107 174 0
1 -107 -175 0
1 170 110 0
1 -170 115 0
1 170 183 0
1 170 -172 0
1 -170 173 0
1 170 -112 0
1 -170 113 0
1 170 107 0
1 -170 -184 0
1 170 174 0
1 -170 175 0
1 -182 -178 0
1 182 -111 0
1 182 181 0
1 -182 -103 0
1 -182 -114 0
1 182 -174 0
1 -181 -171 0
1 -181 178 0
1 -181 -111 0
1 -181 -172 0
1 -181 -103 0
1 -181 179 0
1 181 -182 0
1 -185 -178 0
1 185 -180 0
1 185 -111 0
1 -185 -103 0
1 -185 114 0
1 185 -184 0
1 180 -179 0
1 180 171 0
1 -180 178 0
1 180 111 0
1 -180 183 0
1 180 114 0
1 180 -185 0
1 179 111 0
1 179 173 0
1 -179 185 0
1 179 -182 0
1 -111 179 0
1 -111 -45 0
1 111 180 0
1 111 -181 0
1 111 173 0
1 111 185 0
1 111 -175 0
1 114 178 0
1 114 173 0
1 114 -99 0
1 114 185 0
1 -114 -182 0
1 -114 -175 0
1 178 -180 0
1 178 173 0
1 -178 -114 0
1 178 185 0
1 -178 -182 0
1 178 -175 0
1 -132 -135 0
1 -132 186 0
1 -132 -122 0
1 132 -129 0
1 132 -126 0
1 132 -124 0
1 132 123 0
1 -132 -131 0
1 135 -75 0
1 -135 125 0
1 135 121 0
1 135 122 0
1 135 129 0
1 -135 132 0
1 135 -126 0
1 -135 -123 0
1 -135 127 0
1 -135 131 0
1 142 186 0
1 -142 -125 0
1 -142 129 0
1 142 87 0
1 142 126 0
1 -142 -124 0
1 142 -136 0
1 -142 -133 0
1 142 131 0
1 143 125 0
1 143 134 0
1 143 129 0
1 -143 -142 0
1 -143 126 0
1 -143 133 0
1 -143 -131 0
1 -143 -85 0
1 124 -187 0
1 124 142 0
1 -124 132 0
1 -124 119 0
1 -124 152 0
1 -124 141 0
1 124 143 0
1 125 135 0
1 -125 188 0
1 125 -151 0
1 -125 142 0
1 125 132 0
1 125 124 0
1 -125 152 0
1 -125 141 0
1 -126 -186 0
1 126 142 0
1 -126 -132 0
1 126 118 0
1 126 189 0
1 -186 135 0
1 -186 -116 0
1 -186 190 0
1 186 -142 0
1 186 132 0
1 186 -126 0
1 -186 -143 0
1 -140 128 0
1 -140 65 0
1 140 125 0
1 -140 -137 0
1 140 129 0
1 140 130 0
1 -140 -70 0
1 140 -136 0
1 -140 -133 0
1 140 -141 0
1 -140 -131 0
1 -141 128 0
1 141 -131 0
1 -141 -65 0
1 141 125 0
1 -141 -137 0
1 -141 129 0
1 141 130 0
1 141 70 0
1 141 -83 0
1 141 -133 0
1 151 -139 0
1 151 -65 0
1 151 125 0
1 151 137 0
1 -151 95 0
1 -151 -134 0
1 151 -144 0
1 -151 -191 0
1 151 70 0
1 -151 136 0
1 151 124 0
1 -151 152 0
1 151 133 0
1 152 139 0
1 -152 -65 0
1 -152 -125 0
1 -152 151 0
1 152 134 0
1 152 -144 0
1 -152 -191 0
1 152 70 0
1 152 -124 0
1 -152 -97 0
1 152 -136 0
1 152 133 0
1 133 -192 0
1 -133 151 0
1 133 140 0
1 -133 142 0
1 -133 -193 0
1 -133 -161 0
1 133 -150 0
1 133 127 0
1 -133 141 0
1 134 -148 0
1 -134 122 0
1 134 -151 0
1 134 -142 0
1 -134 193 0
1 134 161 0
1 -134 -150 0
1 134 -141 0
1 -136 -151 0
1 -136 140 0
1 136 142 0
1 -136 152 0
1 136 -194 0
1 136 -141 0
1 -136 143 0
1 137 192 0
1 -137 195 0
1 -137 -140 0
1 -137 -142 0
1 -137 136 0
1 137 -193 0
1 137 -152 0
1 -137 -141 0
1 -148 65 0
1 148 -62 0
1 -148 -90 0
1 -148 134 0
1 -148 -191 0
1 -148 70 0
1 -148 145 0
1 148 150 0
1 148 -133 0
1 -148 -196 0
1 150 148 0
1 150 134 0
1 -150 -144 0
1 150 -70 0
1 150 -138 0
1 -150 145 0
1 150 -96 0
1 -150 133 0
1 -150 -196 0
1 -159 78 0
1 159 -109 0
1 -159 134 0
1 159 144 0
1 -159 191 0
1 159 197 0
1 159 -149 0
1 159 161 0
1 159 -133 0
1 159 -196 0
1 -161 -139 0
1 -161 198 0
1 161 147 0
1 -161 -78 0
1 -161 -134 0
1 161 144 0
1 161 -197 0
1 -161 -145 0
1 -161 -108 0
1 -161 133 0
1 161 196 0
1 -139 -128 0
1 -139 167 0
1 -139 -155 0
1 139 -159 0
1 139 148 0
1 -139 -199 0
1 139 -157 0
1 -139 161 0
1 -139 150 0
1 -191 -200 0
1 -191 155 0
1 -191 159 0
1 191 148 0
1 -191 130 0
1 -191 -199 0
1 191 168 0
1 -191 201 0
1 191 157 0
1 191 -161 0
1 191 150 0
1 -191 -152 0
1 -196 -202 0
1 -196 200 0
1 196 -203 0
1 -196 -192 0
1 -196 159 0
1 196 148 0
1 -196 -151 0
1 -196 -144 0
1 196 -199 0
1 -196 193 0
1 196 -161 0
1 -196 150 0
1 -196 -152 0
1 -144 -200 0
1 144 203 0
1 144 192 0
1 144 -151 0
1 144 -129 0
1 -144 204 0
1 -144 -205 0
1 144 -193 0
1 -144 152 0
1 -155 -192 0
1 155 78 0
1 -155 -147 0
1 155 -153 0
1 155 -84 0
1 -155 -191 0
1 155 197 0
1 155 157 0
1 -155 -145 0
1 155 86 0
1 157 -139 0
1 -157 -198 0
1 -157 -155 0
1 157 147 0
1 157 84 0
1 157 191 0
1 -157 -102 0
1 157 193 0
1 157 -149 0
1 157 -86 0
1 167 -147 0
1 -167 160 0
1 167 191 0
1 -167 -168 0
1 167 -149 0
1 167 -206 0
1 167 -158 0
1 -167 86 0
1 168 139 0
1 168 -167 0
1 168 -198 0
1 168 147 0
1 -168 160 0
1 168 84 0
1 168 -205 0
1 -168 -197 0
1 -168 -158 0
1 -168 -86 0
1 147 -163 0
1 -147 -167 0
1 147 -155 0
1 147 -62 0
1 -147 159 0
1 147 -207 0
1 147 168 0
1 -147 -157 0
1 -147 -161 0
1 -147 -177 0
1 -149 163 0
1 -149 -167 0
1 149 155 0
1 149 147 0
1 -149 -159 0
1 149 -207 0
1 149 -157 0
1 149 161 0
1 198 -200 0
1 198 167 0
1 -198 -65 0
1 198 159 0
1 -198 207 0
1 198 208 0
1 198 199 0
1 198 -168 0
1 198 197 0
1 198 -157 0
1 198 161 0
1 -197 200 0
1 -197 -167 0
1 197 -198 0
1 197 159 0
1 -197 -207 0
1 197 -168 0
1 197 -157 0
1 -197 161 0
1 163 200 0
1 163 147 0
1 163 -160 0
1 -163 -156 0
1 163 84 0
1 163 -165 0
1 -163 -149 0
1 -163 206 0
1 163 -158 0
1 -163 86 0
1 163 -98 0
1 165 -163 0
1 165 -147 0
1 -165 -160 0
1 165 -156 0
1 -165 84 0
1 165 82 0
1 -165 199 0
1 165 149 0
1 -165 -206 0
1 -165 158 0
1 165 -86 0
1 165 -98 0
1 -177 209 0
1 177 160 0
1 177 -162 0
1 -177 149 0
1 -177 -206 0
1 -177 158 0
1 177 169 0
1 -177 166 0
1 -177 175 0
1 -177 -98 0
1 176 -160 0
1 -176 156 0
1 176 -173 0
1 176 164 0
1 176 -208 0
1 -176 162 0
1 176 -149 0
1 176 -206 0
1 -176 -158 0
1 -176 -166 0
1 -156 163 0
1 -156 -167 0
1 -156 158 0
1 -156 -153 0
1 156 -183 0
1 -156 172 0
1 -156 -176 0
1 156 -165 0
1 156 -168 0
1 -156 184 0
1 -156 -174 0
1 -156 -177 0
1 158 -156 0
1 -158 -172 0
1 -158 -176 0
1 158 -168 0
1 158 -184 0
1 -158 174 0
1 -160 163 0
1 160 -167 0
1 -160 210 0
1 -160 -207 0
1 160 176 0
1 160 168 0
1 -160 206 0
1 160 -177 0
1 206 -167 0
1 -206 -210 0
1 206 -207 0
1 -206 165 0
1 206 168 0
1 206 -211 0
1 206 177 0
1 -174 -93 0
1 174 -170 0
1 174 -172 0
1 -174 212 0
1 -174 92 0
1 -174 107 0
1 -174 158 0
1 174 169 0
1 174 182 0
1 -174 166 0
1 172 93 0
1 172 156 0
1 -172 181 0
1 -172 -207 0
1 -172 164 0
1 -172 -162 0
1 172 92 0
1 -172 107 0
1 172 158 0
1 -172 -169 0
1 -172 174 0
1 -172 -98 0
1 184 156 0
1 184 -212 0
1 -184 164 0
1 -184 -107 0
1 184 158 0
1 -184 -185 0
1 184 169 0
1 184 211 0
1 183 -170 0
1 183 -180 0
1 -183 -210 0
1 -183 -169 0
1 183 164 0
1 -183 107 0
1 -183 -184 0
1 -183 166 0
1 -164 176 0
1 164 184 0
1 -164 -174 0
1 166 183 0
1 -166 -172 0
1 166 -176 0
1 -166 -154 0
1 166 -174 0
1 166 177 0
1 -212 -183 0
1 212 -84 0
1 -212 176 0
1 -212 169 0
1 -212 -184 0
1 212 174 0
1 212 177 0
1 -169 172 0
1 169 212 0
1 169 -86 0
1 -169 184 0
1 169 174 0
1 192 155 0
1 -192 190 0
1 -192 188 0
1 192 -137 0
1 -192 -134 0
1 192 144 0
1 -192 193 0
1 -192 -189 0
1 192 187 0
1 -192 -133 0
1 -192 -196 0
1 193 192 0
1 193 -190 0
1 193 -188 0
1 193 -137 0
1 -193 -134 0
1 -193 144 0
1 -193 -157 0
1 193 -187 0
1 203 190 0
1 -203 188 0
1 203 213 0
1 -203 205 0
1 203 189 0
1 -203 214 0
1 -205 188 0
1 -205 -213 0
1 205 -144 0
1 205 -168 0
1 -205 -189 0
1 205 187 0
1 -205 -194 0
1 205 -214 0
1 -187 209 0
1 -187 -200 0
1 -187 203 0
1 187 192 0
1 -187 -188 0
1 187 -208 0
1 -187 -199 0
1 -187 205 0
1 187 -193 0
1 187 124 0
1 188 -209 0
1 188 -203 0
1 188 192 0
1 188 -125 0
1 188 -199 0
1 -188 -205 0
1 188 187 0
1 189 -203 0
1 189 -192 0
1 -189 190 0
1 -189 205 0
1 -189 -193 0
1 -190 203 0
1 -190 -189 0
1 -190 -186 0
1 190 205 0
1 200 139 0
1 -200 198 0
1 200 188 0
1 -200 195 0
1 200 -213 0
1 -200 -191 0
1 200 -187 0
1 -200 194 0
1 -200 -214 0
1 -199 -139 0
1 199 -198 0
1 199 -188 0
1 -199 -195 0
1 -199 -213 0
1 199 144 0
1 199 -165 0
1 -199 -191 0
1 -199 -197 0
1 199 -187 0
1 -199 194 0
1 199 -196 0
1 -209 -202 0
1 209 215 0
1 -209 -198 0
1 209 -213 0
1 209 204 0
1 209 197 0
1 -209 -187 0
1 -209 -194 0
1 -209 177 0
1 208 -209 0
1 -208 188 0
1 -208 -195 0
1 -208 176 0
1 208 204 0
1 -208 -197 0
1 208 187 0
1 214 209 0
1 214 203 0
1 -214 210 0
1 -214 207 0
1 -214 -208 0
1 214 199 0
1 -214 205 0
1 214 -211 0
1 213 203 0
1 213 210 0
1 -213 134 0
1 213 207 0
1 -213 -208 0
1 213 -199 0
1 -213 -205 0
1 213 -211 0
1 194 -209 0
1 -194 200 0
1 -194 203 0
1 -194 -195 0
1 194 208 0
1 -194 199 0
1 194 205 0
1 -194 136 0
1 -195 203 0
1 195 208 0
1 195 205 0
1 -195 194 0
1 207 202 0
1 -207 147 0
1 -207 160 0
1 207 -172 0
1 -207 -213 0
1 -207 204 0
1 -207 -149 0
1 211 -215 0
1 -211 -160 0
1 -211 210 0
1 -211 213 0
1 -211 204 0
1 -211 -206 0
1 -211 214 0
1 210 -215 0
1 -210 -160 0
1 -210 -204 0
1 -210 -206 0
1 210 211 0
1 -210 -214 0
1 215 209 0
1 215 139 0
1 215 -210 0
1 215 -207 0
1 -215 208 0
1 -215 -201 0
1 -201 209 0
1 -201 215 0
1 -201 -210 0
1 -201 207 0
1 -201 208 0
1 -202 -209 0
1 202 -210 0
1 202 -207 0
1 202 -208 0
1 202 204 0
1 -202 -196 0
1 204 -202 0
1 -204 210 0
1 204 207 0
1 204 -144 0
